c preprocessed version of 1ig5_graph, 75 vertices, 816 edges
p td 75 816
73 74
72 74
72 73
71 74
71 73
71 72
70 74
70 73
70 72
70 71
69 74
69 73
69 72
69 71
69 70
68 73
68 72
68 71
68 70
68 69
67 74
67 72
67 71
67 70
67 69
67 68
66 73
66 71
66 70
66 69
66 68
66 67
65 73
65 72
65 70
65 69
65 68
65 67
65 66
64 72
64 71
64 68
64 67
64 66
64 65
63 70
63 68
63 67
63 66
63 65
63 64
62 69
62 66
62 65
62 64
62 63
61 68
61 67
61 66
61 65
61 64
61 63
61 62
60 72
60 71
60 69
60 68
60 67
60 66
60 65
60 64
60 63
60 62
60 61
59 68
59 65
59 64
59 61
59 60
58 60
58 59
57 64
57 61
57 60
57 59
57 58
56 59
56 58
56 57
55 64
55 63
55 61
55 60
55 59
55 58
55 57
55 56
54 67
54 64
54 63
54 61
54 60
54 57
54 56
54 55
53 72
53 68
53 65
53 64
53 61
53 60
53 59
53 58
53 57
53 56
53 55
53 54
52 72
52 71
52 70
52 69
52 68
52 67
52 66
52 65
52 64
52 63
52 61
52 60
52 59
52 55
52 54
52 53
51 71
51 68
51 67
51 64
51 60
51 56
51 54
51 53
51 52
50 68
50 60
50 58
50 56
50 53
50 52
50 51
49 72
49 69
49 68
49 65
49 64
49 60
49 59
49 58
49 56
49 53
49 52
49 51
49 50
48 74
48 72
48 71
48 70
48 69
48 68
48 67
48 65
48 64
48 60
48 53
48 52
48 51
48 50
48 49
47 72
47 71
47 68
47 67
47 52
47 51
47 50
47 49
47 48
46 72
46 68
46 60
46 58
46 56
46 53
46 51
46 50
46 49
46 48
46 47
45 73
45 72
45 71
45 69
45 68
45 65
45 64
45 60
45 58
45 53
45 52
45 50
45 49
45 48
45 47
45 46
44 74
44 72
44 71
44 68
44 67
44 52
44 51
44 49
44 48
44 47
44 46
44 45
43 72
43 68
43 49
43 48
43 47
43 46
43 45
43 44
42 47
42 46
42 44
42 43
41 44
41 43
41 42
40 45
40 43
40 42
40 41
39 72
39 69
39 68
39 65
39 49
39 48
39 46
39 45
39 43
39 41
39 40
38 74
38 73
38 72
38 70
38 69
38 68
38 65
38 48
38 45
38 43
38 40
38 39
37 73
37 72
37 69
37 43
37 41
37 40
37 39
37 38
36 45
36 43
36 40
36 39
36 38
36 37
35 73
35 72
35 70
35 69
35 68
35 66
35 65
35 49
35 48
35 45
35 43
35 39
35 38
35 37
35 36
34 73
34 72
34 69
34 68
34 66
34 65
34 62
34 38
34 37
34 36
34 35
33 39
33 36
33 35
33 34
32 45
32 43
32 40
32 39
32 36
32 35
32 34
32 33
31 73
31 72
31 69
31 68
31 65
31 64
31 60
31 53
31 52
31 49
31 48
31 46
31 45
31 44
31 43
31 40
31 39
31 38
31 37
31 36
31 35
31 34
31 33
31 32
30 72
30 69
30 68
30 66
30 65
30 62
30 60
30 52
30 49
30 48
30 45
30 39
30 38
30 35
30 34
30 33
30 32
30 31
29 39
29 34
29 33
29 32
29 31
29 30
28 72
28 68
28 65
28 60
28 49
28 46
28 45
28 43
28 39
28 36
28 33
28 32
28 31
28 30
28 29
27 72
27 71
27 69
27 68
27 66
27 65
27 64
27 62
27 61
27 60
27 59
27 58
27 53
27 52
27 49
27 48
27 46
27 45
27 43
27 39
27 38
27 35
27 34
27 32
27 31
27 30
27 29
27 28
26 65
26 60
26 59
26 58
26 49
26 34
26 31
26 30
26 29
26 28
26 27
25 60
25 59
25 58
25 49
25 46
25 45
25 32
25 30
25 29
25 28
25 27
25 26
24 72
24 68
24 65
24 64
24 60
24 59
24 58
24 56
24 53
24 52
24 50
24 49
24 48
24 46
24 45
24 43
24 39
24 32
24 31
24 28
24 27
24 26
24 25
23 65
23 61
23 60
23 59
23 58
23 57
23 55
23 53
23 49
23 45
23 30
23 29
23 28
23 27
23 26
23 25
23 24
22 72
22 69
22 68
22 66
22 65
22 64
22 62
22 61
22 60
22 59
22 53
22 52
22 49
22 48
22 45
22 35
22 34
22 31
22 30
22 29
22 27
22 26
22 25
22 24
22 23
21 65
21 64
21 63
21 62
21 61
21 60
21 59
21 58
21 57
21 55
21 54
21 53
21 49
21 27
21 26
21 24
21 23
21 22
20 65
20 63
20 62
20 61
20 59
20 57
20 55
20 23
20 22
20 21
19 62
19 61
19 23
19 22
19 21
19 20
18 61
18 59
18 57
18 55
18 26
18 23
18 21
18 20
18 19
17 59
17 58
17 26
17 25
17 23
17 22
17 21
17 19
17 18
16 59
16 58
16 29
16 26
16 25
16 23
16 22
16 21
16 19
16 18
16 17
15 59
15 34
15 33
15 30
15 29
15 26
15 25
15 23
15 22
15 19
15 17
15 16
14 62
14 26
14 22
14 20
14 19
14 16
14 15
13 69
13 68
13 66
13 65
13 64
13 62
13 61
13 60
13 59
13 30
13 27
13 26
13 23
13 22
13 21
13 20
13 19
13 18
13 17
13 16
13 15
13 14
12 72
12 69
12 68
12 65
12 62
12 60
12 49
12 35
12 34
12 33
12 32
12 31
12 30
12 29
12 28
12 27
12 26
12 25
12 23
12 22
12 21
12 16
12 15
12 14
12 13
11 34
11 33
11 30
11 29
11 26
11 22
11 15
11 14
11 13
11 12
10 65
10 62
10 61
10 30
10 22
10 20
10 19
10 18
10 14
10 13
10 12
10 11
9 72
9 69
9 68
9 67
9 66
9 65
9 64
9 63
9 62
9 61
9 60
9 59
9 53
9 52
9 49
9 48
9 35
9 34
9 31
9 30
9 27
9 26
9 23
9 22
9 21
9 20
9 19
9 18
9 14
9 13
9 12
9 11
9 10
8 73
8 72
8 69
8 68
8 66
8 65
8 62
8 60
8 38
8 35
8 34
8 33
8 31
8 30
8 29
8 27
8 26
8 22
8 13
8 12
8 11
8 10
8 9
7 62
7 34
7 30
7 14
7 12
7 11
7 10
7 9
7 8
6 69
6 66
6 65
6 63
6 62
6 61
6 22
6 20
6 19
6 14
6 13
6 11
6 10
6 9
6 8
6 7
5 73
5 72
5 70
5 69
5 68
5 67
5 66
5 65
5 64
5 63
5 62
5 60
5 38
5 35
5 34
5 31
5 30
5 27
5 22
5 13
5 12
5 10
5 9
5 8
5 7
5 6
4 69
4 66
4 65
4 35
4 34
4 30
4 11
4 9
4 8
4 7
4 6
4 5
3 66
3 62
3 10
3 7
3 6
3 5
3 4
2 70
2 69
2 67
2 66
2 65
2 63
2 62
2 10
2 9
2 6
2 5
2 4
2 3
1 69
1 66
1 8
1 7
1 6
1 5
1 4
1 3
1 2
0 73
0 70
0 69
0 66
0 65
0 38
0 37
0 35
0 34
0 31
0 30
0 9
0 8
0 7
0 5
0 4
0 3
0 2
0 1
